p cnf 8 50
1 -3 2 0
7 6 2 -5 1 0
3 8 7 1 0
-2 8 3 -4 -5 0
3 7 -8 6 -2 5 0
7 6 3 5 -1 -2 4 -8 0
2 4 0
2 -5 0
7 -1 3 0
-6 -1 -3 0
-4 8 6 -1 -2 7 -5 -3 0
-2 1 5 4 -7 -8 0
-1 -4 6 0
-7 4 2 0
1 -4 -2 0
4 -6 3 2 0
-4 -7 8 0
-1 -4 0
1 8 -3 0
2 4 -6 5 0
3 6 2 0
-6 1 -8 -5 7 -4 -3 2 0
8 6 5 2 7 -1 -4 0
3 6 -1 5 0
3 -4 -1 0
7 -2 0
-2 -5 -1 0
-7 4 -5 0
-2 1 -6 -3 0
2 5 8 0
-7 3 1 6 0
4 6 -3 -1 -5 -2 -8 7 0
-4 -3 -1 -5 -8 2 6 0
-6 3 1 0
-3 2 -5 -1 4 0
-5 6 3 0
-4 2 -5 1 6 0
8 -7 5 -2 6 0
-3 -5 8 4 -1 0
-2 -8 -3 -6 0
-2 1 8 0
-1 6 -7 0
-7 -4 0
-5 -6 -4 -3 0
6 -3 2 1 -5 -4 0
6 -7 -4 2 0
-4 3 0
7 4 -5 0
-8 -7 3 0
1 8 -7 4 0
